GLPSOL: GLPK LP/MIP Solver, v4.57
Parameter(s) specified in the command line:
 --model t2gen7.mod
Reading model section from t2gen7.mod...
Reading data section from t2gen7.mod...
3011 lines were read
Generating first...
Generating second...
Generating third...
Generating cr0...
Generating cr1...
Generating cr2...
Generating cr3...
Generating cr4...
Generating cr5...
Generating cr6...
Generating cr7...
Generating cr8...
Generating cr9...
Generating cr10...
Generating cr11...
Generating cr12...
Generating cr13...
Generating cr14...
Generating ct0...
Generating ct1...
Generating ct2...
Generating ct3...
Generating ct4...
Generating ct5...
Generating ct6...
Generating ct7...
Generating ct8...
Generating ct9...
Generating ct10...
Generating ct11...
Generating ct12...
Generating ct13...
Generating ct14...
Generating ct15...
Generating ct16...
Generating ct17...
Generating ct19...
Generating ct20...
Generating ct21...
Generating ct23...
Generating ct24...
Generating ct25...
Generating ct26...
Generating ct27...
Generating obj...
Model has been successfully generated
GLPK Integer Optimizer, v4.57
201 rows, 37800 columns, 196563 non-zeros
37800 integer variables, all of which are binary
Preprocessing...
153 rows, 7659 columns, 22977 non-zeros
7659 integer variables, all of which are binary
Scaling...
 A: min|aij| =  1.000e+00  max|aij| =  1.000e+00  ratio =  1.000e+00
Problem data seem to be well scaled
Constructing initial basis...
Size of triangular part is 153
Solving LP relaxation...
GLPK Simplex Optimizer, v4.57
153 rows, 7659 columns, 22977 non-zeros
      0: obj =   9.000000000e+01 inf =   5.400e+01 (4)
     99: obj =   5.900000000e+01 inf =   0.000e+00 (0)
*   199: obj =   5.000000000e+01 inf =   6.374e-15 (0)
OPTIMAL LP SOLUTION FOUND
Integer optimization begins...
+   199: mip =     not found yet >=              -inf        (1; 0)
+   453: >>>>>   5.000000000e+01 >=   5.000000000e+01   0.0% (26; 0)
+   453: mip =   5.000000000e+01 >=     tree is empty   0.0% (0; 51)
INTEGER OPTIMAL SOLUTION FOUND
Time used:   0.6 secs
Memory used: 58.4 Mb (61224719 bytes)
result: c:0 r:4 t:18 time:0
result: c:1 r:2 t:3 time:0
result: c:2 r:12 t:3 time:1
result: c:3 r:7 t:0 time:1
result: c:4 r:12 t:22 time:2
result: c:5 r:11 t:4 time:0
result: c:6 r:8 t:18 time:1
result: c:7 r:1 t:4 time:1
result: c:8 r:12 t:22 time:0
result: c:9 r:13 t:17 time:0
result: c:10 r:2 t:25 time:2
result: c:11 r:6 t:14 time:1
result: c:12 r:2 t:11 time:1
result: c:13 r:3 t:3 time:2
result: c:14 r:9 t:10 time:0
result: c:15 r:0 t:6 time:0
result: c:16 r:10 t:6 time:1
result: c:17 r:0 t:2 time:1
result: c:18 r:3 t:1 time:1
result: c:19 r:0 t:0 time:2
result: c:20 r:4 t:5 time:1
result: c:21 r:5 t:12 time:1
result: c:22 r:7 t:11 time:0
result: c:23 r:8 t:7 time:0
result: c:24 r:10 t:9 time:0
result: c:25 r:5 t:1 time:0
result: c:26 r:3 t:2 time:0
result: c:27 r:11 t:8 time:1
result: c:28 r:1 t:8 time:0
result: c:29 r:6 t:0 time:0
Model has been successfully processed

Timeslot used: 3
